40
1 0 3
2 0 11
2 1 4
3 0 11
3 1 13
3 2 11
4 0 2
4 1 12
4 2 3
4 3 2
5 0 8
5 1 10
5 2 8
5 3 10
5 4 11
6 0 8
6 1 13
6 2 12
6 3 4
6 4 11
6 5 4
7 0 13
7 1 6
7 2 12
7 3 1
7 4 7
7 5 7
7 6 12
8 0 12
8 1 8
8 2 12
8 3 3
8 4 9
8 5 2
8 6 7
8 7 4
9 0 13
9 1 5
9 2 5
9 3 11
9 4 12
9 5 2
9 6 3
9 7 3
9 8 12
10 0 4
10 1 8
10 2 6
10 3 3
10 4 12
10 5 13
10 6 5
10 7 3
10 8 3
10 9 2
11 0 12
11 1 13
11 2 13
11 3 5
11 4 5
11 5 8
11 6 2
11 7 12
11 8 13
11 9 3
11 10 4
12 0 3
12 1 11
12 2 11
12 3 1
12 4 7
12 5 2
12 6 10
12 7 3
12 8 10
12 9 5
12 10 3
12 11 11
13 0 6
13 1 3
13 2 8
13 3 10
13 4 6
13 5 7
13 6 5
13 7 13
13 8 12
13 9 13
13 10 3
13 11 10
13 12 13
14 0 2
14 1 5
14 2 11
14 3 8
14 4 6
14 5 7
14 6 5
14 7 10
14 8 4
14 9 6
14 10 12
14 11 13
14 12 7
14 13 12
15 0 5
15 1 3
15 2 4
15 3 10
15 4 12
15 5 11
15 6 4
15 7 11
15 8 1
15 9 5
15 10 13
15 11 3
15 12 6
15 13 12
15 14 10
16 0 2
16 1 4
16 2 2
16 3 8
16 4 4
16 5 5
16 6 12
16 7 10
16 8 3
16 9 9
16 10 13
16 11 12
16 12 12
16 13 10
16 14 12
16 15 6
17 0 10
17 1 11
17 2 3
17 3 5
17 4 9
17 5 5
17 6 9
17 7 7
17 8 1
17 9 3
17 10 5
17 11 2
17 12 4
17 13 1
17 14 12
17 15 10
17 16 11
18 0 10
18 1 3
18 2 13
18 3 9
18 4 5
18 5 8
18 6 7
18 7 7
18 8 12
18 9 10
18 10 10
18 11 10
18 12 11
18 13 4
18 14 9
18 15 9
18 16 2
18 17 13
19 0 1
19 1 6
19 2 8
19 3 13
19 4 8
19 5 8
19 6 10
19 7 7
19 8 5
19 9 9
19 10 8
19 11 6
19 12 13
19 13 8
19 14 5
19 15 4
19 16 7
19 17 6
19 18 12
20 0 2
20 1 9
20 2 8
20 3 13
20 4 11
20 5 2
20 6 6
20 7 1
20 8 11
20 9 7
20 10 12
20 11 8
20 12 3
20 13 1
20 14 13
20 15 2
20 16 2
20 17 8
20 18 13
20 19 1
21 0 8
21 1 6
21 2 5
21 3 2
21 4 10
21 5 3
21 6 5
21 7 13
21 8 10
21 9 11
21 10 10
21 11 13
21 12 5
21 13 4
21 14 1
21 15 13
21 16 2
21 17 10
21 18 12
21 19 8
21 20 7
22 0 4
22 1 9
22 2 10
22 3 2
22 4 8
22 5 8
22 6 2
22 7 13
22 8 12
22 9 8
22 10 6
22 11 4
22 12 11
22 13 5
22 14 10
22 15 5
22 16 7
22 17 4
22 18 3
22 19 7
22 20 8
22 21 2
23 0 9
23 1 11
23 2 6
23 3 13
23 4 9
23 5 3
23 6 8
23 7 8
23 8 3
23 9 1
23 10 10
23 11 9
23 12 12
23 13 4
23 14 3
23 15 10
23 16 7
23 17 2
23 18 3
23 19 13
23 20 8
23 21 2
23 22 5
24 0 11
24 1 7
24 2 6
24 3 6
24 4 8
24 5 2
24 6 7
24 7 10
24 8 3
24 9 8
24 10 4
24 11 4
24 12 12
24 13 4
24 14 8
24 15 12
24 16 5
24 17 6
24 18 6
24 19 9
24 20 7
24 21 2
24 22 3
24 23 13
25 0 13
25 1 8
25 2 2
25 3 6
25 4 7
25 5 3
25 6 7
25 7 4
25 8 8
25 9 6
25 10 4
25 11 9
25 12 10
25 13 6
25 14 3
25 15 12
25 16 12
25 17 8
25 18 12
25 19 11
25 20 10
25 21 4
25 22 4
25 23 9
25 24 5
26 0 4
26 1 12
26 2 10
26 3 3
26 4 13
26 5 11
26 6 10
26 7 13
26 8 6
26 9 1
26 10 8
26 11 4
26 12 4
26 13 2
26 14 2
26 15 5
26 16 8
26 17 7
26 18 7
26 19 1
26 20 13
26 21 12
26 22 11
26 23 9
26 24 10
26 25 13
27 0 12
27 1 8
27 2 6
27 3 12
27 4 3
27 5 12
27 6 9
27 7 11
27 8 8
27 9 2
27 10 1
27 11 13
27 12 9
27 13 4
27 14 2
27 15 1
27 16 8
27 17 1
27 18 5
27 19 6
27 20 8
27 21 5
27 22 4
27 23 12
27 24 10
27 25 11
27 26 2
28 0 13
28 1 12
28 2 6
28 3 2
28 4 12
28 5 13
28 6 9
28 7 7
28 8 6
28 9 8
28 10 9
28 11 7
28 12 10
28 13 10
28 14 3
28 15 12
28 16 7
28 17 11
28 18 4
28 19 5
28 20 4
28 21 5
28 22 4
28 23 2
28 24 3
28 25 5
28 26 8
28 27 13
29 0 1
29 1 10
29 2 3
29 3 3
29 4 8
29 5 4
29 6 5
29 7 13
29 8 3
29 9 4
29 10 3
29 11 6
29 12 7
29 13 8
29 14 13
29 15 5
29 16 2
29 17 3
29 18 7
29 19 12
29 20 1
29 21 4
29 22 2
29 23 11
29 24 12
29 25 8
29 26 11
29 27 12
29 28 8
30 0 5
30 1 4
30 2 4
30 3 11
30 4 6
30 5 13
30 6 11
30 7 12
30 8 7
30 9 10
30 10 1
30 11 4
30 12 5
30 13 5
30 14 2
30 15 11
30 16 9
30 17 5
30 18 12
30 19 5
30 20 12
30 21 4
30 22 5
30 23 2
30 24 8
30 25 9
30 26 7
30 27 13
30 28 10
30 29 11
31 0 9
31 1 11
31 2 2
31 3 4
31 4 8
31 5 9
31 6 10
31 7 8
31 8 7
31 9 9
31 10 12
31 11 3
31 12 7
31 13 2
31 14 4
31 15 5
31 16 3
31 17 4
31 18 3
31 19 1
31 20 1
31 21 9
31 22 1
31 23 12
31 24 2
31 25 10
31 26 6
31 27 4
31 28 2
31 29 4
31 30 12
32 0 12
32 1 12
32 2 7
32 3 2
32 4 8
32 5 4
32 6 13
32 7 1
32 8 1
32 9 10
32 10 3
32 11 1
32 12 2
32 13 8
32 14 10
32 15 6
32 16 11
32 17 3
32 18 13
32 19 7
32 20 2
32 21 8
32 22 11
32 23 5
32 24 8
32 25 12
32 26 7
32 27 10
32 28 12
32 29 8
32 30 5
32 31 7
33 0 12
33 1 10
33 2 1
33 3 6
33 4 7
33 5 7
33 6 8
33 7 12
33 8 9
33 9 10
33 10 7
33 11 11
33 12 13
33 13 7
33 14 10
33 15 7
33 16 4
33 17 3
33 18 10
33 19 12
33 20 3
33 21 8
33 22 7
33 23 12
33 24 10
33 25 9
33 26 9
33 27 4
33 28 8
33 29 5
33 30 3
33 31 10
33 32 9
34 0 4
34 1 2
34 2 1
34 3 4
34 4 13
34 5 1
34 6 10
34 7 4
34 8 8
34 9 11
34 10 4
34 11 13
34 12 13
34 13 2
34 14 2
34 15 10
34 16 13
34 17 10
34 18 7
34 19 8
34 20 8
34 21 8
34 22 13
34 23 3
34 24 13
34 25 9
34 26 10
34 27 13
34 28 13
34 29 5
34 30 11
34 31 2
34 32 6
34 33 13
35 0 1
35 1 5
35 2 1
35 3 6
35 4 12
35 5 11
35 6 10
35 7 12
35 8 11
35 9 4
35 10 2
35 11 6
35 12 5
35 13 10
35 14 7
35 15 8
35 16 2
35 17 12
35 18 5
35 19 8
35 20 1
35 21 10
35 22 8
35 23 5
35 24 11
35 25 10
35 26 2
35 27 13
35 28 8
35 29 1
35 30 11
35 31 9
35 32 4
35 33 12
35 34 9
36 0 2
36 1 13
36 2 7
36 3 7
36 4 8
36 5 7
36 6 4
36 7 4
36 8 8
36 9 9
36 10 3
36 11 8
36 12 10
36 13 4
36 14 4
36 15 13
36 16 3
36 17 9
36 18 9
36 19 9
36 20 9
36 21 10
36 22 8
36 23 7
36 24 2
36 25 7
36 26 2
36 27 7
36 28 1
36 29 10
36 30 1
36 31 11
36 32 8
36 33 10
36 34 6
36 35 4
37 0 1
37 1 10
37 2 5
37 3 2
37 4 10
37 5 12
37 6 4
37 7 13
37 8 4
37 9 11
37 10 13
37 11 5
37 12 8
37 13 2
37 14 11
37 15 4
37 16 11
37 17 6
37 18 7
37 19 13
37 20 7
37 21 9
37 22 11
37 23 4
37 24 7
37 25 10
37 26 9
37 27 4
37 28 12
37 29 2
37 30 11
37 31 4
37 32 4
37 33 6
37 34 2
37 35 7
37 36 3
38 0 4
38 1 4
38 2 9
38 3 12
38 4 6
38 5 8
38 6 10
38 7 10
38 8 1
38 9 6
38 10 12
38 11 10
38 12 7
38 13 1
38 14 11
38 15 8
38 16 9
38 17 2
38 18 1
38 19 11
38 20 9
38 21 1
38 22 8
38 23 12
38 24 3
38 25 10
38 26 6
38 27 6
38 28 6
38 29 6
38 30 4
38 31 5
38 32 1
38 33 9
38 34 12
38 35 8
38 36 9
38 37 9
39 0 12
39 1 13
39 2 4
39 3 1
39 4 8
39 5 9
39 6 10
39 7 10
39 8 8
39 9 1
39 10 5
39 11 9
39 12 4
39 13 3
39 14 2
39 15 5
39 16 9
39 17 7
39 18 1
39 19 1
39 20 4
39 21 6
39 22 1
39 23 9
39 24 3
39 25 8
39 26 10
39 27 1
39 28 12
39 29 10
39 30 9
39 31 11
39 32 10
39 33 6
39 34 10
39 35 6
39 36 6
39 37 3
39 38 7
